GLPSOL--GLPK LP/MIP Solver 5.0
Parameter(s) specified in the command line:
 --lp ../modeles/3_319.lp --log 3_319.log
Reading problem data from '../modeles/3_319.lp'...
970 rows, 1920 columns, 6714 non-zeros
957 integer variables, all of which are binary
2899 lines were read
GLPK Integer Optimizer 5.0
970 rows, 1920 columns, 6714 non-zeros
957 integer variables, all of which are binary
Preprocessing...
942 constraint coefficient(s) were reduced
970 rows, 1917 columns, 6711 non-zeros
957 integer variables, all of which are binary
Scaling...
 A: min|aij| =  3.931e-05  max|aij| =  4.000e+00  ratio =  1.018e+05
GM: min|aij| =  5.599e-02  max|aij| =  1.786e+01  ratio =  3.190e+02
EQ: min|aij| =  3.135e-03  max|aij| =  1.000e+00  ratio =  3.190e+02
2N: min|aij| =  2.516e-03  max|aij| =  1.752e+00  ratio =  6.964e+02
Constructing initial basis...
Size of triangular part is 970
Solving LP relaxation...
GLPK Simplex Optimizer 5.0
970 rows, 1917 columns, 6711 non-zeros
      0: obj =   6.000000000e+00 inf =   1.450e+01 (7)
     56: obj =   4.999459513e-01 inf =   0.000e+00 (0)
*   198: obj =  -1.731949366e+00 inf =   1.244e-15 (0)
OPTIMAL LP SOLUTION FOUND
Integer optimization begins...
Long-step dual simplex will be used
+   198: mip =     not found yet >=              -inf        (1; 0)
+   202: >>>>>  -1.731949366e+00 >=  -1.731949366e+00 < 0.1% (4; 0)
+   202: mip =  -1.731949366e+00 >=     tree is empty   0.0% (0; 7)
INTEGER OPTIMAL SOLUTION FOUND
Time used:   0.0 secs
Memory used: 2.8 Mb (2968829 bytes)
